c description: Random 3-CNF over 23 variables and 98 clauses
c generator: CNFgen (0.9.2)
c copyright: (C) 2012-2022 Massimo Lauria <massimo.lauria@uniroma1.it>
c url: https://massimolauria.net/cnfgen
c command line: cnfgen --output CNF_4.28/23_bit_98_984.cnf randkcnf 3 23 98
c
p cnf 23 98
7 9 -14 0
6 -12 -16 0
13 -14 19 0
2 -13 21 0
3 -13 19 0
7 -8 -20 0
-14 19 23 0
-1 -14 -18 0
-1 -11 20 0
3 -22 -23 0
-6 -19 23 0
1 -17 -19 0
-2 -6 -10 0
4 -20 -23 0
2 3 17 0
16 21 -22 0
2 -5 -16 0
-6 -10 23 0
3 -9 14 0
9 -21 -23 0
7 -11 16 0
-6 15 -20 0
-9 -11 -12 0
11 -17 -22 0
-18 -19 -20 0
7 -11 -20 0
-6 7 -21 0
9 -18 23 0
1 -6 18 0
1 9 16 0
-5 -16 17 0
-5 9 -14 0
-10 -12 23 0
7 8 -11 0
-11 17 -23 0
8 -11 -18 0
-2 -21 22 0
3 -14 -22 0
5 -6 16 0
-7 11 -19 0
16 -18 -23 0
-11 16 -17 0
-8 -18 19 0
6 -12 20 0
-9 -15 18 0
-1 -5 -22 0
4 6 -16 0
-1 -2 3 0
-6 18 23 0
6 -17 -23 0
-1 13 -17 0
-1 9 21 0
-5 -7 -10 0
-4 5 21 0
-6 11 18 0
-3 -4 6 0
-3 -5 14 0
7 -13 -17 0
-8 -9 -11 0
-2 4 -21 0
10 -11 17 0
-4 -8 -12 0
6 -8 -14 0
-15 22 23 0
-2 6 -12 0
-10 -11 16 0
8 -17 23 0
-5 -7 13 0
6 -18 21 0
10 15 21 0
-7 9 20 0
8 14 -17 0
-4 17 -23 0
-2 21 22 0
7 -9 14 0
-4 5 18 0
9 12 -15 0
8 15 -21 0
2 10 -12 0
-1 -15 19 0
1 -6 9 0
-1 4 -14 0
-3 -14 22 0
4 -8 -20 0
9 -16 21 0
-9 -10 23 0
-7 -10 23 0
6 13 -21 0
-14 19 -22 0
-4 -13 -16 0
1 -7 -12 0
2 -3 16 0
-14 -15 -21 0
-1 9 23 0
15 -16 -19 0
3 18 -19 0
-5 20 21 0
-1 8 18 0
